c *********************************
c * Circuit generated by BenCGen
c *
c * Parity_106
c *
c * Ports with 1 gate(s): 1
c * Ports with 2 gate(s): 106
c * Total gates: 107
c *********************************
p cnf 213 425
1 109 0
-1 -109 0
1 -108 0
109 -108 0
-1 -109 108 0
1 2 -110 0
-1 2 110 0
1 -2 110 0
-1 -2 -110 0
3 4 -111 0
-3 4 111 0
3 -4 111 0
-3 -4 -111 0
5 6 -112 0
-5 6 112 0
5 -6 112 0
-5 -6 -112 0
7 8 -113 0
-7 8 113 0
7 -8 113 0
-7 -8 -113 0
9 10 -114 0
-9 10 114 0
9 -10 114 0
-9 -10 -114 0
11 12 -115 0
-11 12 115 0
11 -12 115 0
-11 -12 -115 0
13 14 -116 0
-13 14 116 0
13 -14 116 0
-13 -14 -116 0
15 16 -117 0
-15 16 117 0
15 -16 117 0
-15 -16 -117 0
17 18 -118 0
-17 18 118 0
17 -18 118 0
-17 -18 -118 0
19 20 -119 0
-19 20 119 0
19 -20 119 0
-19 -20 -119 0
21 22 -120 0
-21 22 120 0
21 -22 120 0
-21 -22 -120 0
23 24 -121 0
-23 24 121 0
23 -24 121 0
-23 -24 -121 0
25 26 -122 0
-25 26 122 0
25 -26 122 0
-25 -26 -122 0
27 28 -123 0
-27 28 123 0
27 -28 123 0
-27 -28 -123 0
29 30 -124 0
-29 30 124 0
29 -30 124 0
-29 -30 -124 0
31 32 -125 0
-31 32 125 0
31 -32 125 0
-31 -32 -125 0
33 34 -126 0
-33 34 126 0
33 -34 126 0
-33 -34 -126 0
35 36 -127 0
-35 36 127 0
35 -36 127 0
-35 -36 -127 0
37 38 -128 0
-37 38 128 0
37 -38 128 0
-37 -38 -128 0
39 40 -129 0
-39 40 129 0
39 -40 129 0
-39 -40 -129 0
41 42 -130 0
-41 42 130 0
41 -42 130 0
-41 -42 -130 0
43 44 -131 0
-43 44 131 0
43 -44 131 0
-43 -44 -131 0
45 46 -132 0
-45 46 132 0
45 -46 132 0
-45 -46 -132 0
47 48 -133 0
-47 48 133 0
47 -48 133 0
-47 -48 -133 0
49 50 -134 0
-49 50 134 0
49 -50 134 0
-49 -50 -134 0
51 52 -135 0
-51 52 135 0
51 -52 135 0
-51 -52 -135 0
53 54 -136 0
-53 54 136 0
53 -54 136 0
-53 -54 -136 0
55 56 -137 0
-55 56 137 0
55 -56 137 0
-55 -56 -137 0
57 58 -138 0
-57 58 138 0
57 -58 138 0
-57 -58 -138 0
59 60 -139 0
-59 60 139 0
59 -60 139 0
-59 -60 -139 0
61 62 -140 0
-61 62 140 0
61 -62 140 0
-61 -62 -140 0
63 64 -141 0
-63 64 141 0
63 -64 141 0
-63 -64 -141 0
65 66 -142 0
-65 66 142 0
65 -66 142 0
-65 -66 -142 0
67 68 -143 0
-67 68 143 0
67 -68 143 0
-67 -68 -143 0
69 70 -144 0
-69 70 144 0
69 -70 144 0
-69 -70 -144 0
71 72 -145 0
-71 72 145 0
71 -72 145 0
-71 -72 -145 0
73 74 -146 0
-73 74 146 0
73 -74 146 0
-73 -74 -146 0
75 76 -147 0
-75 76 147 0
75 -76 147 0
-75 -76 -147 0
77 78 -148 0
-77 78 148 0
77 -78 148 0
-77 -78 -148 0
79 80 -149 0
-79 80 149 0
79 -80 149 0
-79 -80 -149 0
81 82 -150 0
-81 82 150 0
81 -82 150 0
-81 -82 -150 0
83 84 -151 0
-83 84 151 0
83 -84 151 0
-83 -84 -151 0
85 86 -152 0
-85 86 152 0
85 -86 152 0
-85 -86 -152 0
87 88 -153 0
-87 88 153 0
87 -88 153 0
-87 -88 -153 0
89 90 -154 0
-89 90 154 0
89 -90 154 0
-89 -90 -154 0
91 92 -155 0
-91 92 155 0
91 -92 155 0
-91 -92 -155 0
93 94 -156 0
-93 94 156 0
93 -94 156 0
-93 -94 -156 0
95 96 -157 0
-95 96 157 0
95 -96 157 0
-95 -96 -157 0
97 98 -158 0
-97 98 158 0
97 -98 158 0
-97 -98 -158 0
99 100 -159 0
-99 100 159 0
99 -100 159 0
-99 -100 -159 0
101 102 -160 0
-101 102 160 0
101 -102 160 0
-101 -102 -160 0
103 104 -161 0
-103 104 161 0
103 -104 161 0
-103 -104 -161 0
105 106 -162 0
-105 106 162 0
105 -106 162 0
-105 -106 -162 0
110 111 -163 0
-110 111 163 0
110 -111 163 0
-110 -111 -163 0
112 113 -164 0
-112 113 164 0
112 -113 164 0
-112 -113 -164 0
114 115 -165 0
-114 115 165 0
114 -115 165 0
-114 -115 -165 0
116 117 -166 0
-116 117 166 0
116 -117 166 0
-116 -117 -166 0
118 119 -167 0
-118 119 167 0
118 -119 167 0
-118 -119 -167 0
120 121 -168 0
-120 121 168 0
120 -121 168 0
-120 -121 -168 0
122 123 -169 0
-122 123 169 0
122 -123 169 0
-122 -123 -169 0
124 125 -170 0
-124 125 170 0
124 -125 170 0
-124 -125 -170 0
126 127 -171 0
-126 127 171 0
126 -127 171 0
-126 -127 -171 0
128 129 -172 0
-128 129 172 0
128 -129 172 0
-128 -129 -172 0
130 131 -173 0
-130 131 173 0
130 -131 173 0
-130 -131 -173 0
132 133 -174 0
-132 133 174 0
132 -133 174 0
-132 -133 -174 0
134 135 -175 0
-134 135 175 0
134 -135 175 0
-134 -135 -175 0
136 137 -176 0
-136 137 176 0
136 -137 176 0
-136 -137 -176 0
138 139 -177 0
-138 139 177 0
138 -139 177 0
-138 -139 -177 0
140 141 -178 0
-140 141 178 0
140 -141 178 0
-140 -141 -178 0
142 143 -179 0
-142 143 179 0
142 -143 179 0
-142 -143 -179 0
144 145 -180 0
-144 145 180 0
144 -145 180 0
-144 -145 -180 0
146 147 -181 0
-146 147 181 0
146 -147 181 0
-146 -147 -181 0
148 149 -182 0
-148 149 182 0
148 -149 182 0
-148 -149 -182 0
150 151 -183 0
-150 151 183 0
150 -151 183 0
-150 -151 -183 0
152 153 -184 0
-152 153 184 0
152 -153 184 0
-152 -153 -184 0
154 155 -185 0
-154 155 185 0
154 -155 185 0
-154 -155 -185 0
156 157 -186 0
-156 157 186 0
156 -157 186 0
-156 -157 -186 0
158 159 -187 0
-158 159 187 0
158 -159 187 0
-158 -159 -187 0
160 161 -188 0
-160 161 188 0
160 -161 188 0
-160 -161 -188 0
163 164 -189 0
-163 164 189 0
163 -164 189 0
-163 -164 -189 0
165 166 -190 0
-165 166 190 0
165 -166 190 0
-165 -166 -190 0
167 168 -191 0
-167 168 191 0
167 -168 191 0
-167 -168 -191 0
169 170 -192 0
-169 170 192 0
169 -170 192 0
-169 -170 -192 0
171 172 -193 0
-171 172 193 0
171 -172 193 0
-171 -172 -193 0
173 174 -194 0
-173 174 194 0
173 -174 194 0
-173 -174 -194 0
175 176 -195 0
-175 176 195 0
175 -176 195 0
-175 -176 -195 0
177 178 -196 0
-177 178 196 0
177 -178 196 0
-177 -178 -196 0
179 180 -197 0
-179 180 197 0
179 -180 197 0
-179 -180 -197 0
181 182 -198 0
-181 182 198 0
181 -182 198 0
-181 -182 -198 0
183 184 -199 0
-183 184 199 0
183 -184 199 0
-183 -184 -199 0
185 186 -200 0
-185 186 200 0
185 -186 200 0
-185 -186 -200 0
187 188 -201 0
-187 188 201 0
187 -188 201 0
-187 -188 -201 0
189 190 -202 0
-189 190 202 0
189 -190 202 0
-189 -190 -202 0
191 192 -203 0
-191 192 203 0
191 -192 203 0
-191 -192 -203 0
193 194 -204 0
-193 194 204 0
193 -194 204 0
-193 -194 -204 0
195 196 -205 0
-195 196 205 0
195 -196 205 0
-195 -196 -205 0
197 198 -206 0
-197 198 206 0
197 -198 206 0
-197 -198 -206 0
199 200 -207 0
-199 200 207 0
199 -200 207 0
-199 -200 -207 0
201 162 -208 0
-201 162 208 0
201 -162 208 0
-201 -162 -208 0
202 203 -209 0
-202 203 209 0
202 -203 209 0
-202 -203 -209 0
204 205 -210 0
-204 205 210 0
204 -205 210 0
-204 -205 -210 0
206 207 -211 0
-206 207 211 0
206 -207 211 0
-206 -207 -211 0
209 210 -212 0
-209 210 212 0
209 -210 212 0
-209 -210 -212 0
211 208 -213 0
-211 208 213 0
211 -208 213 0
-211 -208 -213 0
212 213 -107 0
-212 213 107 0
212 -213 107 0
-212 -213 -107 0
